3302
3327
3287
3214
3272
3253
3307
3268
3227
3285
3207
3264
3290
3247
3273
3282
3250
3294
3324
3264
3312
3266
3268
3249
3322
3241
3275
3313
3266
3244
3253
3195
3299
3291
3312
3256
3326
3263
3317
3303
3237
3301
3301
3288
3287
3294
3299
3303
3278
3286
3296
3243
3269
3220
3291
3256
3339
3255
3253
3193
3286
3279
3264
3325
3290
3323
3208
3321
3304
3234
3325
3286
3280
3297
3312
3283
3316
3298
3276
3302
3310
3315
3284
3325
3302
3318
3294
3283
3264
3253
3268
3301
3272
3335
3307
3289
3271
3241
3287
3277
